c Random 6-CNF over 40 variables and 80 clauses
c Generated with `cnfgen`
c (C) 2012-2016 Massimo Lauria <lauria.massimo@gmail.com>
c https://massimolauria.github.io/cnfgen
c
c COMMAND LINE: cnfgen --output tmp-6-40-80.dimacs --output-format dimacs randkcnf 6 40 80
c
c sdimacs generated by gen-sdimacs
c
p cnf 40 80
r 0.5 1 2 3 4 5 6 7 8 9 10 11 12 13 14 15 16 17 18 19 20 0
e  21 22 23 24 25 26 27 28 29 30 31 32 33 34 35 36 37 38 39 40 0
11 21 -25 -29 31 32 0
8 19 -28 37 39 -40 0
1 -5 -11 -20 33 39 0
2 -13 16 -29 -30 -37 0
-2 19 -24 -29 -34 -40 0
-11 15 -16 19 -30 33 0
10 18 -21 -28 -30 34 0
4 7 13 -21 26 29 0
-4 -10 -25 -30 -31 32 0
1 6 10 14 19 31 0
-10 -12 -20 -23 24 36 0
-7 9 15 17 -32 40 0
4 -11 13 -26 27 34 0
-2 -10 -12 -17 30 -34 0
1 5 -16 -32 -33 -36 0
-3 -6 12 -27 -33 -39 0
-1 -6 -9 -10 15 16 0
-6 10 17 19 -25 34 0
-8 -9 -10 -15 25 39 0
-1 -17 25 27 32 -37 0
-2 6 9 -18 -33 -35 0
-1 16 -20 24 -32 -37 0
4 -8 16 23 28 -34 0
-5 6 8 12 17 -22 0
-5 8 24 26 -27 34 0
-6 -10 23 25 27 37 0
-7 15 20 27 31 -36 0
-1 -12 26 -28 31 -37 0
-17 19 -23 30 -36 37 0
-4 -5 -11 20 27 30 0
-4 -5 14 -26 34 -35 0
-2 -8 -13 19 31 33 0
6 12 17 21 -27 34 0
-7 11 -13 18 -33 34 0
1 2 -10 20 -23 -33 0
-9 -18 -25 32 33 39 0
4 11 13 17 -28 -34 0
2 -12 16 -21 -32 -35 0
12 13 19 -23 25 -32 0
-4 12 -14 -18 20 21 0
4 7 13 -17 37 40 0
1 10 14 26 -34 -37 0
-1 -9 -21 27 35 -38 0
12 -14 17 -26 -36 39 0
-1 -2 -7 -20 -25 26 0
-5 -11 -12 14 -15 28 0
-1 -11 16 -21 -25 33 0
2 -3 5 19 -29 35 0
-1 8 -13 -21 25 26 0
6 10 -11 21 30 31 0
1 2 7 22 -27 -37 0
8 14 17 -23 36 37 0
6 12 -15 21 -34 35 0
6 15 -17 20 -27 36 0
-2 -13 20 -28 -31 -40 0
-2 -16 -17 21 -32 38 0
2 17 -28 31 33 39 0
-2 -20 -23 -26 35 38 0
-1 15 25 -30 32 37 0
2 -7 -25 26 28 37 0
9 12 -18 19 20 38 0
2 -9 18 25 -32 -40 0
-8 11 -12 -18 19 31 0
-5 8 12 -13 35 38 0
-1 11 20 23 26 33 0
-20 -21 26 27 29 33 0
1 -4 12 14 -30 35 0
15 -20 -26 -27 29 -40 0
12 17 18 -19 -24 31 0
-1 5 11 -16 19 -38 0
6 7 -20 -23 32 -40 0
-1 -3 8 -30 -34 -38 0
-2 13 -20 25 -27 29 0
-2 4 -15 27 33 35 0
11 14 -24 -32 33 35 0
-5 -18 28 31 34 -35 0
-2 13 16 -17 28 -35 0
-11 -31 32 33 -36 -39 0
-4 -8 15 35 37 40 0
4 18 -35 36 -37 -39 0
